MARKOV
5
2 2 2 2 2 
5
2 2 0
1 1
1 2
3 2 1 3
3 0 3 4

4
0.05000000 0.95000000 1.50000000 0.50000000

2
0.70000000 2.30000000

2
1.10000000 0.90000000

8
0.01000000 0.99000000 2.25000000 3.75000000 0.50000000 0.50000000 0.60000000 0.40000000

8
0.01000000 4.99000000 0.10000000 1.90000000 0.20000000 0.80000000 0.50000000 0.50000000
